min: 1 x1 + 1 x2 + 1 x3 + 1 x4 + 1 x5 + 1 x6 + 1 x7 + 1 x8 + 1 x9 + 1 x10 + 1 x11 + 1 x12 + 1 x13 + 1 x14 + 1 x15;

r1: x10 + x3 >= 1;
r2: x7 + x9 + x8 + x5 >= 1;
r3: x1 >= 1;
r4: x5 + x13 + x4 + x2 >= 1;
r5: x7 + x4 + x5 + x15 >= 1;
r6: x14 >= 1;
r7: x5 + x1 + x14 + x13 + x3 + x12 >= 1;
r8: x11 >= 1;
r9: x10 + x8 + x5 + x4 >= 1;
r10: x1 >= 1;
r11: x2 + x1 + x12 + x6 >= 1;
r12: x11 + x8 + x4 >= 1;
r13: x14 + x9 + x15 + x1 + x12 + x8 >= 1;
r14: x8 >= 1;
r15: x10 + x5 + x7 + x6 + x15 >= 1;
r16: x12 + x2 >= 1;
r17: x2 + x10 + x13 + x12 + x9 + x4 >= 1;
r18: x3 + x6 + x12 + x13 >= 1;
r19: x6 + x7 + x15 >= 1;
r20: x10 + x15 + x5 >= 1;
r21: x1 + x8 >= 1;
r22: x9 + x15 >= 1;
r23: x12 + x11 + x10 + x6 >= 1;
r24: x3 + x5 >= 1;
r25: x13 + x4 + x6 + x14 + x10 >= 1;
r26: x10 + x8 + x9 >= 1;
r27: x3 + x12 + x11 + x2 + x1 >= 1;
r28: x5 + x8 >= 1;
r29: x8 >= 1;
r30: x11 + x12 + x1 + x15 + x8 + x10 >= 1;
r31: x8 + x15 + x13 + x2 >= 1;
r32: x11 + x9 + x14 >= 1;
r33: x6 + x1 + x8 + x2 + x5 + x12 >= 1;
r34: x4 + x3 >= 1;
r35: x6 + x5 >= 1;
r36: x12 + x5 + x13 >= 1;
r37: x14 + x8 + x7 + x15 + x3 >= 1;
r38: x13 + x9 + x6 + x15 + x8 + x5 >= 1;
r39: x4 + x1 + x2 + x8 + x7 + x6 >= 1;
r40: x14 + x15 + x10 + x7 >= 1;
r41: x12 + x11 + x2 + x4 >= 1;
r42: x12 + x3 >= 1;
r43: x6 + x4 + x1 + x5 + x3 + x15 >= 1;
r44: x12 + x5 + x10 + x3 >= 1;
r45: x11 + x9 >= 1;
r46: x12 + x4 + x1 + x7 >= 1;
r47: x9 >= 1;
r48: x10 + x7 >= 1;
r49: x1 + x8 >= 1;
r50: x2 >= 1;

bin x1, x2, x3, x4, x5, x6, x7, x8, x9, x10, x11, x12, x13, x14, x15;
